NAME : swiss42-C-3-0-a.1347.tour
COMMENT : Length = 1347
COMMENT : Found by LKH-3 [Keld Helsgaun] Tue Jul 30 13:14:05 2024
TYPE : TOUR
DIMENSION : 42
TOUR_SECTION
1
8
18
32
36
37
38
16
17
15
20
14
6
7
2
5
27
19
13
12
26
11
9
42
24
10
22
41
25
40
23
39
35
34
21
33
31
30
29
3
28
4
-1
EOF
